(set-info :source  loris-7.ddns.comp.nus.edu.sg/~project/hip/) 
;Variables declarations
(declare-fun p_2318 () Int)
(declare-fun d_2317 () Int)
(declare-fun v_bool_74_1484_primed () Int)
(declare-fun p_2305 () Int)
(declare-fun xs () Int)
(declare-fun bg_2302 () Int)
(declare-fun sm_2301 () Int)
(declare-fun bg () Int)
(declare-fun sm () Int)
(declare-fun d_2304 () Int)
(declare-fun n () Int)
(declare-fun flted_9_2303 () Int)
(declare-fun res () Int)
(declare-fun c_primed () Int)
(declare-fun sm_2313 () Int)
(declare-fun bg_2314 () Int)
(declare-fun n_2312 () Int)
(declare-fun xs_primed () Int)
;Relations declarations
;Axioms assertions
;Antecedent
(assert (= (+ flted_9_2303 1) n_2312))
(assert (<= sm_2313 d_2317))
(assert (<= d_2317 bg_2314))
(assert (= sm_2301 sm_2313))
(assert (= bg_2302 bg_2314))
(assert (<= sm_2301 d_2317))
(assert (<= d_2317 bg_2302))
(assert (= p_2318 p_2305))
(assert (= d_2317 d_2304))
(assert (> v_bool_74_1484_primed 0))
(assert (> p_2305 0))
(assert (< 0 n))
(assert (= xs_primed xs))
(assert (= bg_2302 bg))
(assert (= sm_2301 sm))
(assert (<= d_2304 bg))
(assert (<= sm d_2304))
(assert (= (+ flted_9_2303 1) n))
(assert (<= 0 flted_9_2303))
(assert (> xs_primed 0))
(assert (= c_primed n_2312))
(assert (<= 0 n_2312))
(assert (= (+ res res) c_primed))
(assert (or (and (< xs_primed 1) (= n_2312 0)) (and (and (<= sm_2313 bg_2314) (<= 1 n_2312)) (> xs_primed 0))))
;Negation of Consequence
(assert (not false))
(check-sat)